W=6;
H=5;

MAX_TIME=13;
MAX_TRACKS=13;

TARGET=(5,6);

TRAINS=[(1,5,DOWN),(1,1,DOWN)];
DECOYS=[(5,4,LEFT)];

INIT_POS=[
(1,1,STRAIGHT_TD),
(1,5,STRAIGHT_TD),
(3,3,STRAIGHT_TD),
(4,1,CORNER_DR),
(4,4,ROCK),
(4,5,ROCK),
(4,6,ROCK),
(5,4,STRAIGHT_RL),
(5,5,STRAIGHT_RL),
(5,6,STRAIGHT_RL),
];
TUNNEL_PAIRS=[];

GATES=[
(3,3,1,false),
(5,5,1,true),
];
ACTIVATIONS=[
(4,1,1),
];

DSWITCHES=[];
STATIONS=[];
